; PUSH cw_0 ADDRESS SWAP1 POP => ADDRESS
(set-option :produce-proofs true)
; 
(set-info :status unknown)
(declare-fun storage_t ((_ BitVec 256) (_ BitVec 256) Int (_ BitVec 256)) (_ BitVec 256))
(declare-fun w_0 () (_ BitVec 256))
(declare-fun storage_s ((_ BitVec 256) (_ BitVec 256) Int (_ BitVec 256)) (_ BitVec 256))
(declare-fun exc_halt_t (Int) Bool)
(declare-fun exc_halt_s (Int) Bool)
(declare-fun sc_t (Int) (_ BitVec 6))
(declare-fun stack_t ((_ BitVec 256) (_ BitVec 256) Int (_ BitVec 6)) (_ BitVec 256))
(declare-fun stack_s ((_ BitVec 256) (_ BitVec 256) Int (_ BitVec 6)) (_ BitVec 256))
(declare-fun sc_s (Int) (_ BitVec 6))
(declare-fun used_gas_t ((_ BitVec 256) (_ BitVec 256) Int) Int)
(declare-fun used_gas_s ((_ BitVec 256) (_ BitVec 256) Int) Int)
(assert
 (exists ((x_ADDRESS (_ BitVec 256)) )(let (($x5491 (forall ((w (_ BitVec 256)) )(let ((?x4139 (storage_t w_0 x_ADDRESS 1 w)))
 (let ((?x3613 (storage_s w_0 x_ADDRESS 4 w)))
 (= ?x3613 ?x4139))))
 ))
 (let (($x11710 (exc_halt_t 1)))
 (let (($x9175 (exc_halt_s 4)))
 (let (($x6094 (= $x9175 $x11710)))
 (let (($x11441 (forall ((n (_ BitVec 6)) )(let ((?x8615 (sc_t 1)))
 (let (($x11058 (bvsle ?x8615 n)))
 (let ((?x10703 (stack_t w_0 x_ADDRESS 1 n)))
 (let ((?x9679 (stack_s w_0 x_ADDRESS 4 n)))
 (let (($x687 (= ?x9679 ?x10703)))
 (or $x687 $x11058)))))))
 ))
 (let ((?x8615 (sc_t 1)))
 (let ((?x9433 (sc_s 4)))
 (let (($x10443 (= ?x9433 ?x8615)))
 (let ((?x7670 (used_gas_t w_0 x_ADDRESS 0)))
 (let ((?x9234 (used_gas_s w_0 x_ADDRESS 0)))
 (let (($x8419 (= ?x9234 ?x7670)))
 (let (($x311 (forall ((w (_ BitVec 256)) )(let ((?x11341 (storage_t w_0 x_ADDRESS 0 w)))
 (let ((?x411 (storage_s w_0 x_ADDRESS 0 w)))
 (= ?x411 ?x11341))))
 ))
 (let (($x56 (exc_halt_t 0)))
 (let (($x57 (exc_halt_s 0)))
 (let (($x58 (= $x57 $x56)))
 (let (($x9914 (forall ((n (_ BitVec 6)) )(let ((?x63 (sc_t 0)))
 (let (($x11418 (bvsle ?x63 n)))
 (let ((?x6741 (stack_t w_0 x_ADDRESS 0 n)))
 (let ((?x2813 (stack_s w_0 x_ADDRESS 0 n)))
 (let (($x2058 (= ?x2813 ?x6741)))
 (or $x2058 $x11418)))))))
 ))
 (let ((?x63 (sc_t 0)))
 (let ((?x72 (sc_s 0)))
 (let (($x73 (= ?x72 ?x63)))
 (let (($x9870 (= $x11710 (or $x56 (not (= ((_ extract 6 6) (bvadd (_ bv1 7) (concat (_ bv0 1) ?x63))) (_ bv0 1)))))))
 (let (($x5668 (forall ((w (_ BitVec 256)) )(let ((?x11341 (storage_t w_0 x_ADDRESS 0 w)))
 (let ((?x4139 (storage_t w_0 x_ADDRESS 1 w)))
 (= ?x4139 ?x11341))))
 ))
 (let (($x7736 (forall ((n (_ BitVec 6)) )(let ((?x63 (sc_t 0)))
 (let (($x11418 (bvsle ?x63 n)))
 (or (= (stack_t w_0 x_ADDRESS 1 n) (stack_t w_0 x_ADDRESS 0 n)) $x11418))))
 ))
 (let (($x2614 (= ?x8615 (bvadd (_ bv1 6) ?x63))))
 (let (($x1714 (= $x9175 (or (exc_halt_s 3) (not (bvsle (_ bv0 6) (bvadd (_ bv63 6) (sc_s 3))))))))
 (let (($x2449 (forall ((w (_ BitVec 256)) )(let ((?x10791 (storage_s w_0 x_ADDRESS 3 w)))
 (let ((?x3613 (storage_s w_0 x_ADDRESS 4 w)))
 (= ?x3613 ?x10791))))
 ))
 (let (($x4640 (forall ((n (_ BitVec 6)) )(or (= (stack_s w_0 x_ADDRESS 4 n) (stack_s w_0 x_ADDRESS 3 n)) (bvsle (bvadd (_ bv63 6) (sc_s 3)) n)))
 ))
 (let (($x7795 (= (used_gas_s w_0 x_ADDRESS 4) (+ 2 (used_gas_s w_0 x_ADDRESS 3)))))
 (let (($x8103 (exc_halt_s 3)))
 (let (($x8560 (= $x8103 (or (exc_halt_s 2) (not (bvsle (_ bv0 6) (bvadd (_ bv62 6) (sc_s 2))))))))
 (let (($x4899 (forall ((w (_ BitVec 256)) )(let ((?x3580 (storage_s w_0 x_ADDRESS 2 w)))
 (let ((?x10791 (storage_s w_0 x_ADDRESS 3 w)))
 (= ?x10791 ?x3580))))
 ))
 (let (($x11991 (forall ((n (_ BitVec 6)) )(let ((?x2272 (sc_s 2)))
 (let ((?x9521 (bvadd (_ bv62 6) ?x2272)))
 (let (($x4857 (bvsle ?x9521 n)))
 (or $x4857 (= (stack_s w_0 x_ADDRESS 3 n) (stack_s w_0 x_ADDRESS 2 n)))))))
 ))
 (let ((?x2272 (sc_s 2)))
 (let ((?x3851 (sc_s 3)))
 (let (($x5056 (= ?x3851 ?x2272)))
 (let ((?x7653 (used_gas_s w_0 x_ADDRESS 3)))
 (let (($x9657 (= (stack_s w_0 x_ADDRESS 3 (bvadd (_ bv62 6) ?x3851)) (stack_s w_0 x_ADDRESS 2 (bvadd (_ bv63 6) ?x2272)))))
 (let (($x10350 (= (stack_s w_0 x_ADDRESS 3 (bvadd (_ bv63 6) ?x3851)) (stack_s w_0 x_ADDRESS 2 (bvadd (_ bv62 6) ?x2272)))))
 (let (($x8780 (exc_halt_s 1)))
 (let (($x8009 (or $x8780 (not (= ((_ extract 6 6) (bvadd (_ bv1 7) (concat (_ bv0 1) (sc_s 1)))) (_ bv0 1))))))
 (let (($x10052 (exc_halt_s 2)))
 (let (($x6952 (= $x10052 $x8009)))
 (let (($x9503 (forall ((w (_ BitVec 256)) )(let ((?x2594 (storage_s w_0 x_ADDRESS 1 w)))
 (let ((?x3580 (storage_s w_0 x_ADDRESS 2 w)))
 (= ?x3580 ?x2594))))
 ))
 (let (($x6893 (forall ((n (_ BitVec 6)) )(let ((?x154 (sc_s 1)))
 (let (($x5530 (bvsle ?x154 n)))
 (or $x5530 (= (stack_s w_0 x_ADDRESS 2 n) (stack_s w_0 x_ADDRESS 1 n))))))
 ))
 (let (($x8831 (= ?x2272 (bvadd (_ bv1 6) (sc_s 1)))))
 (let ((?x2909 (used_gas_s w_0 x_ADDRESS 2)))
 (let (($x3394 (= $x8780 (or $x57 (not (= ((_ extract 6 6) (bvadd (_ bv1 7) (concat (_ bv0 1) ?x72))) (_ bv0 1)))))))
 (let (($x11175 (forall ((w (_ BitVec 256)) )(let ((?x411 (storage_s w_0 x_ADDRESS 0 w)))
 (let ((?x2594 (storage_s w_0 x_ADDRESS 1 w)))
 (= ?x2594 ?x411))))
 ))
 (let (($x322 (forall ((n (_ BitVec 6)) )(let ((?x72 (sc_s 0)))
 (let (($x1082 (bvsle ?x72 n)))
 (or $x1082 (= (stack_s w_0 x_ADDRESS 1 n) (stack_s w_0 x_ADDRESS 0 n))))))
 ))
 (let ((?x154 (sc_s 1)))
 (let (($x10962 (= ?x154 (bvadd (_ bv1 6) ?x72))))
 (let (($x137 (forall ((w (_ BitVec 256)) )(let ((?x411 (storage_s w_0 x_ADDRESS 0 w)))
 (= ?x411 (_ bv0 256))))
 ))
 (let (($x5159 (= ?x9234 0)))
 (let (($x10706 (not $x57)))
 (let (($x4825 (= ?x72 (_ bv0 6))))
 (and $x4825 $x10706 $x5159 $x137 (= (stack_s w_0 x_ADDRESS 1 ?x72) w_0) (= (used_gas_s w_0 x_ADDRESS 1) (+ 3 ?x9234)) $x10962 $x322 $x11175 $x3394 (= (stack_s w_0 x_ADDRESS 2 ?x154) x_ADDRESS) (= ?x2909 (+ 2 (used_gas_s w_0 x_ADDRESS 1))) $x8831 $x6893 $x9503 $x6952 $x10350 $x9657 (= ?x7653 (+ 3 ?x2909)) $x5056 $x11991 $x4899 $x8560 $x7795 (= ?x9433 (bvadd (_ bv63 6) ?x3851)) $x4640 $x2449 $x1714 (= (stack_t w_0 x_ADDRESS 1 ?x63) x_ADDRESS) (= (used_gas_t w_0 x_ADDRESS 1) (+ 2 ?x7670)) $x2614 $x7736 $x5668 $x9870 $x73 $x9914 $x58 $x311 $x8419 (not (and $x10443 $x11441 $x6094 $x5491))))))))))))))))))))))))))))))))))))))))))))))))))))))))))
 )
(check-sat)
(get-proof)
